
Gurobi 10.0.1 (linux64) logging started Sun Nov 26 15:49:40 2023

Set parameter LogFile to value "ArtificialInstance/ExperimentV2/S3T5K1/BaRo/gurobi91.txt"
Gurobi Optimizer version 10.0.1 build v10.0.1rc0 (linux64)

CPU model: AMD EPYC 7H12 64-Core Processor, instruction set [SSE2|AVX|AVX2]
Thread count: 128 physical cores, 128 logical processors, using up to 32 threads

Academic license 656792 - for non-commercial use only - registered to b.___@student.vu.nl
Optimize a model with 1923 rows, 2881 columns and 9923 nonzeros
Model fingerprint: 0x1aae2562
Variable types: 1 continuous, 2880 integer (2880 binary)
Coefficient statistics:
  Matrix range     [1e+00, 4e+01]
  Objective range  [1e+00, 2e+01]
  Bounds range     [1e+00, 1e+00]
  RHS range        [1e+00, 1e+00]
Found heuristic solution: objective 398.5957933
Presolve time: 0.01s
Presolved: 1923 rows, 2881 columns, 9923 nonzeros
Variable types: 1 continuous, 2880 integer (2880 binary)

Root relaxation: objective 4.214574e+01, 1866 iterations, 0.06 seconds (0.05 work units)

    Nodes    |    Current Node    |     Objective Bounds      |     Work
 Expl Unexpl |  Obj  Depth IntInf | Incumbent    BestBd   Gap | It/Node Time

     0     0   42.14574    0  320  398.59579   42.14574  89.4%     -    0s
H    0     0                     229.1085948   42.14574  81.6%     -    0s
H    0     0                     183.5446898   42.14574  77.0%     -    0s
H    0     0                      62.0886940   42.14574  32.1%     -    0s
     0     0   46.76578    0  261   62.08869   46.76578  24.7%     -    0s
     0     0   48.03050    0  220   62.08869   48.03050  22.6%     -    0s
H    0     0                      57.3740303   48.03050  16.3%     -    0s
     0     0   48.90494    0  224   57.37403   48.90494  14.8%     -    0s
     0     0   51.91217    0  333   57.37403   51.91217  9.52%     -    0s
     0     0   51.93511    0  414   57.37403   51.93511  9.48%     -    0s
     0     0   51.93511    0  416   57.37403   51.93511  9.48%     -    0s
     0     0   53.12207    0  484   57.37403   53.12207  7.41%     -    0s
     0     0   53.13377    0  476   57.37403   53.13377  7.39%     -    0s
     0     0   53.13377    0  477   57.37403   53.13377  7.39%     -    0s
     0     0   53.76150    0  493   57.37403   53.76150  6.30%     -    0s
     0     0   53.76150    0  311   57.37403   53.76150  6.30%     -    0s
     0     0   53.76150    0  522   57.37403   53.76150  6.30%     -    0s
     0     0   53.96343    0  476   57.37403   53.96343  5.94%     -    0s
     0     0   53.96975    0  474   57.37403   53.96975  5.93%     -    0s
     0     0   54.81536    0  505   57.37403   54.81536  4.46%     -    0s
     0     0   54.85920    0  504   57.37403   54.85920  4.38%     -    0s
     0     0   54.85920    0  504   57.37403   54.85920  4.38%     -    0s
     0     0   57.37403    0  560   57.37403   57.37403  0.00%     -    1s

Cutting planes:
  Gomory: 9
  Clique: 5
  Zero half: 81
  RLT: 56

Explored 1 nodes (9506 simplex iterations) in 1.08 seconds (0.61 work units)
Thread count was 32 (of 128 available processors)

Solution count 5: 57.374 62.0887 183.545 ... 398.596

Optimal solution found (tolerance 1.00e-04)
Best objective 5.737403028862e+01, best bound 5.737403028862e+01, gap 0.0000%
